letting n =  10
letting blocks =  [[1, 3], [1, 7], [1, 8], [1, 10], [2, 10], [3, 1], [3, 2], [3, 3], [3, 8], [3, 10], [4, 2], [4, 5], [4, 7], [5, 3], [5, 4], [6, 1], [6, 4], [6, 10], [7, 1], [7, 5], [7, 6], [7, 10], [8, 4], [8, 5], [9, 5], [9, 8], [9, 9], [10, 1], [10, 2], [10, 10]]
